122 5
10 10 10 10 10 

0 0 0 0 0 0 5 2 14 26 38 50 
0 0 0 0 0 0 3 3 5 6 
3 0 0 1 0 0 5 12 11 10 7 4 
1 0 0 3 0 0 1 8 
7 0 0 5 0 0 1 9 
1 0 0 2 0 0 1 7 
8 0 0 2 0 0 1 13 
9 0 0 2 0 0 1 13 
9 0 0 2 0 0 1 13 
6 0 0 2 0 0 1 13 
10 0 0 3 0 0 1 13 
10 0 0 3 0 0 1 13 
0 0 0 0 0 0 1 62 
0 0 0 0 0 0 5 15 16 17 23 24 
3 0 1 0 0 0 3 22 19 18 
4 0 2 0 0 0 3 22 21 19 
9 0 1 0 0 0 2 21 19 
8 0 6 0 0 0 2 21 20 
2 0 2 0 0 0 1 20 
3 0 3 0 0 0 1 25 
10 0 2 0 0 0 1 25 
4 0 3 0 0 0 1 25 
1 0 3 0 0 0 1 25 
7 0 2 0 0 0 1 25 
0 0 0 0 0 0 1 62 
0 0 0 0 0 0 5 27 28 29 30 31 
6 0 0 1 0 0 3 34 33 32 
8 0 0 2 0 0 2 36 32 
10 0 0 1 0 0 2 33 32 
7 0 0 2 0 0 1 33 
6 0 0 2 0 0 1 32 
2 0 0 4 0 0 1 35 
10 0 0 2 0 0 1 35 
9 0 0 5 0 0 1 35 
5 0 0 4 0 0 1 37 
6 0 0 2 0 0 1 37 
0 0 0 0 0 0 1 62 
0 0 0 0 0 0 5 39 40 42 43 44 
1 0 0 1 0 0 1 41 
6 0 0 7 0 0 1 41 
1 0 0 2 0 0 4 48 47 46 45 
7 0 0 3 0 0 3 47 46 45 
10 0 0 1 0 0 1 46 
3 0 0 3 0 0 1 45 
4 0 0 3 0 0 1 49 
9 0 0 1 0 0 1 49 
6 0 0 3 0 0 1 49 
5 0 0 1 0 0 1 49 
0 0 0 0 0 0 1 62 
0 0 0 0 0 0 3 51 52 56 
8 1 0 0 0 0 2 55 53 
8 1 0 0 0 0 2 54 53 
3 2 0 0 0 0 4 60 59 58 57 
5 3 0 0 0 0 4 60 59 58 57 
9 4 0 0 0 0 3 59 58 57 
1 3 0 0 0 0 3 59 58 57 
9 3 0 0 0 0 1 61 
1 4 0 0 0 0 1 61 
5 1 0 0 0 0 1 61 
8 3 0 0 0 0 1 61 
0 0 0 0 0 0 1 62 
0 0 0 0 0 0 2 63 75 
0 0 0 0 0 0 4 64 65 67 73 
4 0 0 0 1 0 4 72 70 69 66 
6 0 0 0 1 0 3 71 70 68 
10 0 0 0 2 0 1 68 
3 0 0 0 4 0 1 69 
6 0 0 0 3 0 1 74 
1 0 0 0 3 0 1 74 
2 0 0 0 3 0 1 74 
8 0 0 0 2 0 1 74 
2 0 0 0 4 0 1 74 
5 0 0 0 2 0 1 74 
0 0 0 0 0 0 1 87 
0 0 0 0 0 0 5 76 78 79 80 81 
3 0 0 0 0 1 1 77 
7 0 0 0 0 3 1 83 
4 0 0 0 0 3 1 85 
8 0 0 0 0 3 1 84 
5 0 0 0 0 2 1 82 
7 0 0 0 0 2 1 82 
5 0 0 0 0 4 1 86 
4 0 0 0 0 3 1 86 
4 0 0 0 0 2 1 86 
9 0 0 0 0 2 1 86 
0 0 0 0 0 0 1 87 
0 0 0 0 0 0 3 88 89 91 
7 0 0 0 0 1 3 93 92 90 
5 0 0 0 0 2 3 93 92 90 
2 0 0 0 0 1 4 97 96 95 94 
6 0 0 0 0 2 3 96 95 94 
8 0 0 0 0 5 2 96 94 
8 0 0 0 0 3 2 95 94 
6 0 0 0 0 1 1 98 
6 0 0 0 0 2 1 98 
10 0 0 0 0 5 1 98 
1 0 0 0 0 3 1 98 
0 0 0 0 0 0 1 99 
0 0 0 0 0 0 5 100 101 102 103 104 
2 0 0 0 0 1 3 109 107 106 
4 0 0 0 0 4 3 109 106 105 
10 0 0 0 0 2 2 109 105 
1 0 0 0 0 2 2 106 105 
3 0 0 0 0 2 1 105 
5 0 0 0 0 3 1 108 
7 0 0 0 0 4 1 108 
1 0 0 0 0 2 1 108 
1 0 0 0 0 2 1 110 
7 0 0 0 0 3 1 110 
0 0 0 0 0 0 1 111 
0 0 0 0 0 0 7 112 113 117 118 119 120 121 
2 0 1 0 0 0 2 116 114 
7 0 2 0 0 0 2 116 115 
1 0 2 0 0 0 1 115 
5 0 6 0 0 0 1 122 
9 0 3 0 0 0 1 122 
1 0 3 0 0 0 1 122 
6 0 2 0 0 0 1 122 
4 0 1 0 0 0 1 122 
2 0 2 0 0 0 1 122 
9 0 3 0 0 0 1 122 
0 0 0 0 0 0 0 
